#NUMBER OF STEPS OF RUNS
variable nsteps			equal 	17e6	#NVT run steps

#INFORMATION PRINTING PERIODS
variable thermodump     equal   $(3e6/1e4)		#Thermo info dump period
variable trajdump       equal   $(50000)    	#Config info dump period
variable trestart       equal   $(floor(v_nsteps/1.6))    	#Restart configuration saving period

#OTHER SIMULATION PARAMETERS
variable tstep        	equal   0.002   #Integration time step for first part of simulation
variable damp   		equal   1.0    	#Langevin thermostat damping coefficient [F_friction = -(m/damp)*v]

#SEEDS
variable lseed			equal	18276	#Seed for fix langevin
variable vseed			equal	75617	#Seed for creation of velocities

#STRINGS
variable fname 			string 	data.run_Tstart4.1_Tend0.		#name of the data file to be read to start the simulation
variable thermofile     string  thermo.dat	#name of the file with thermodynamic infos
variable simname 		string 	hello	#name of this simulation

#VARIABLES FOR LOG TIMES
#variable log_times_file	file 	log_times_${nsteps}_50_1.times
#variable logdump		equal 	"next(log_times_file)"




units lj                 # use lennard-jones (i.e. dimensionless) units
atom_style angle         # atoms with bonds and angles

boundary p p p           # all boundaries are periodic

neighbor 1.9 bin
neigh_modify every 1 delay 1 check yes 

#read_data initial_configuration.txt 

read_data data5

#restart 5000 polymer.restart

reset_timestep 0 

group all type 1

dump		2 all custom ${trajdump} dumplin/dump.${simname}.*.lammpstrj mol xu yu zu
dump_modify	2 sort id
dump_modify	2 pad 10
dump_modify	2 format line "%d %.8e %.8e %.8e"

angle_style  cosine
angle_coeff   1  20.0


bond_style   harmonic 
bond_coeff   1   90.0   1.1 

pair_style     soft 1.12246152962189
pair_coeff * *  100.0 1.12246152962189 


variable seed equal 54654651     # a seed for the thermostat

fix 1 all nve                             # NVE integrator
fix 2 all langevin   1.0 1.0 1.0 ${seed}  # langevin thermostat

thermo 1000
thermo_style   custom   step  temp  epair  emol  press  vol


variable t equal step
variable mytemp equal temp
variable myepair equal epair
fix mythermofile all print 1000 "$t ${mytemp} ${myepair}" file thermo_output.dat screen no


compute myRG2compute all gyration
variable RG2 equal c_myRG2compute
fix myRG2file all print 1000 "$t ${RG2}" file radius_of_gyration_squared.dat screen no

timestep 0.01 

run 5000

write_restart DNA.equlilb.restart

bond_style   fene
special_bonds fene 

bond_coeff   1    30.0   1.6   1.0   1.0
pair_style      lj/cut 1.12246152962189
pair_modify shift yes 

pair_coeff      1 1 1.0 1.0 1.12246152962189

run ${nsteps}

#### write a final restart file
write_restart final.restart






































